StudentsNr = 10;
InstructorsNr = 16;
DaysNr = 2;
SlotsPerDay = 15;
AvailabilitySlotsLenght = 3;
RoomNr = 2;
ProgrammNr = 1;
DegreeNr = 3;
RolesNr = 1;
CoursesNr = 7;
InstructorsProgramm = [{1}, {1}, {1}, {1}, {1}, {1}, {1}, {1}, {1}, {1}, {1}, {1}, {1}, {1}, {1}, {1}];
InstructorRolesPerProgramm = [|{1, 2, 3, 4, 8, 15, 16}|];
InstructorsAvailability = [|1, 0, 1, 1, 1, 1, 1, 1, 1, 1, |1, 1, 1, 1, 1, 1, 1, 1, 0, 1, |0, 1, 1, 1, 1, 0, 1, 0, 0, 1, |1, 1, 1, 1, 1, 1, 1, 1, 1, 1, |1, 1, 1, 1, 1, 1, 1, 1, 1, 0, |1, 1, 1, 1, 1, 1, 0, 1, 1, 1, |0, 1, 1, 1, 0, 1, 1, 1, 1, 1, |0, 1, 1, 0, 0, 1, 1, 1, 0, 1, |0, 0, 1, 1, 1, 1, 1, 1, 1, 0, |0, 0, 1, 1, 1, 1, 0, 1, 1, 1, |0, 0, 1, 1, 1, 1, 1, 1, 1, 1, |0, 1, 1, 1, 1, 1, 1, 1, 1, 1, |1, 1, 1, 1, 1, 1, 1, 1, 1, 1, |0, 0, 1, 1, 1, 1, 1, 1, 1, 1, |1, 1, 0, 0, 0, 1, 1, 0, 1, 1, |0, 1, 1, 1, 1, 1, 1, 1, 1, 1|];
StudentsProgramm = [1, 1, 1, 1, 1, 1, 1, 1, 1, 1];
StudentsDegree = [2, 3, 3, 2, 3, 1, 3, 1, 3, 3];
StudentsSupervisorId = [10, 16, 10, 10, 8, 16, 12, 16, 8, 15];
StudentsCourseIds = [{1, 2, 3, 4, 5}, {4, 6, 7}, {1, 4, 6}, {1, 2, 5, 6, 7}, {1, 4, 5}, {1, 2, 3, 4, 6, 7}, {1, 6, 7}, {1, 2, 3, 4, 5, 7}, {1, 3, 4}, {1, 3, 5}];
StudentsAvailability = [|0, 0, 0, 1, 1, 1, 1, 1, 1, 0, |0, 1, 1, 1, 1, 1, 1, 1, 1, 1, |1, 1, 1, 1, 1, 1, 1, 1, 1, 1, |0, 1, 1, 0, 0, 0, 1, 1, 0, 0, |1, 0, 1, 1, 1, 1, 1, 1, 1, 1, |0, 0, 1, 1, 1, 1, 1, 1, 1, 1, |1, 1, 1, 1, 0, 1, 1, 0, 1, 1, |0, 1, 1, 1, 1, 1, 1, 1, 1, 1, |0, 1, 1, 1, 0, 0, 1, 1, 0, 0, |1, 1, 1, 1, 1, 1, 0, 0, 0, 0|];
TheoryticalMinCard = [0, 1, 1, 2, 0, 1, 1, 0, 0, 0];
CoursesInstructorIds = [{6, 7, 11, 12, 13, 14, 15, 16}, {1, 5, 6, 7, 9, 16}, {1, 3, 4, 5, 6, 8, 10, 12, 14, 16}, {1, 3, 4, 6, 8, 10, 13, 14, 16}, {3, 5, 6, 8, 11, 13, 14, 16}, {9}, {2, 3, 6, 7, 9, 11, 12, 14, 16}];
RolesDemands = [1];
RolesContinuity = [];
ExamLen = [2, 1, 1, 2, 1, 2, 1, 2, 1, 1];
LunchTsMinLen = 0;
LunchStarts = [4..10, 19..26];
SupervisorAvailable = 0;
OptimalLunchLenght = [1, 1];
OptimalStartTs = [1, 0];
OptimalFinishTs = [0, 15];
MinimizeRooms = 100;
RolesSoftContinuity = [|1|2|];
SameDegreeInRoom = 20;
Mergeability = 2;
